backend/data/formal_work/fsm_transition_pass/fsm_transition_pass_bmc/model/design_smt2.smt2
; SMT-LIBv2 description generated by Yosys 0.63+184 (git sha1 240439bdb-dirty, aarch64-apple-darwin23.5-clang++ 18.1.8 -fPIC -O3)
; yosys-smt2-module fsm_formal_checker
(declare-sort |fsm_formal_checker_s| 0)
(declare-fun |fsm_formal_checker_is| (|fsm_formal_checker_s|) Bool)
; yosys-smt2-witness {"offset": 0, "path": ["$auto$async2sync.cc:116:execute$77"], "smtname": 0, "smtoffset": 0, "type": "reg", "width": 1}
(declare-fun |fsm_formal_checker#0| (|fsm_formal_checker_s|) (_ BitVec 1)) ; $auto$async2sync.cc:116:execute$77
; yosys-smt2-register $auto$async2sync.cc:116:execute$77 1
(define-fun |fsm_formal_checker_n $auto$async2sync.cc:116:execute$77| ((state |fsm_formal_checker_s|)) Bool (= ((_ extract 0 0) (|fsm_formal_checker#0| state)) #b1))
; yosys-smt2-witness {"offset": 0, "path": ["$auto$async2sync.cc:107:execute$79"], "smtname": 1, "smtoffset": 0, "type": "reg", "width": 1}
(declare-fun |fsm_formal_checker#1| (|fsm_formal_checker_s|) (_ BitVec 1)) ; $auto$async2sync.cc:107:execute$79
; yosys-smt2-register $auto$async2sync.cc:107:execute$79 1
(define-fun |fsm_formal_checker_n $auto$async2sync.cc:107:execute$79| ((state |fsm_formal_checker_s|)) Bool (= ((_ extract 0 0) (|fsm_formal_checker#1| state)) #b1))
; yosys-smt2-witness {"offset": 0, "path": ["$auto$async2sync.cc:107:execute$73"], "smtname": 2, "smtoffset": 0, "type": "reg", "width": 1}
(declare-fun |fsm_formal_checker#2| (|fsm_formal_checker_s|) (_ BitVec 1)) ; $auto$async2sync.cc:107:execute$73
; yosys-smt2-register $auto$async2sync.cc:107:execute$73 1
(define-fun |fsm_formal_checker_n $auto$async2sync.cc:107:execute$73| ((state |fsm_formal_checker_s|)) Bool (= ((_ extract 0 0) (|fsm_formal_checker#2| state)) #b1))
; yosys-smt2-anyinit fsm_formal_checker#3 1 fsm_formal_checker_monitor.sv:28.5-36.8
; yosys-smt2-witness {"offset": 0, "path": ["\\_va_assert_idle_addr_triggered_2"], "smtname": 3, "smtoffset": 0, "type": "init", "width": 1}
(declare-fun |fsm_formal_checker#3| (|fsm_formal_checker_s|) (_ BitVec 1)) ; \_va_assert_idle_addr_triggered_2
; yosys-smt2-register _va_assert_idle_addr_triggered_2 1
; yosys-smt2-wire _va_assert_idle_addr_triggered_2 1
(define-fun |fsm_formal_checker_n _va_assert_idle_addr_triggered_2| ((state |fsm_formal_checker_s|)) Bool (= ((_ extract 0 0) (|fsm_formal_checker#3| state)) #b1))
; yosys-smt2-anyinit fsm_formal_checker#4 1 fsm_formal_checker_monitor.sv:15.5-23.8
; yosys-smt2-witness {"offset": 0, "path": ["\\_va_assert_resp_done_triggered_1"], "smtname": 4, "smtoffset": 0, "type": "init", "width": 1}
(declare-fun |fsm_formal_checker#4| (|fsm_formal_checker_s|) (_ BitVec 1)) ; \_va_assert_resp_done_triggered_1
; yosys-smt2-register _va_assert_resp_done_triggered_1 1
; yosys-smt2-wire _va_assert_resp_done_triggered_1 1
(define-fun |fsm_formal_checker_n _va_assert_resp_done_triggered_1| ((state |fsm_formal_checker_s|)) Bool (= ((_ extract 0 0) (|fsm_formal_checker#4| state)) #b1))
(declare-fun |fsm_formal_checker#5| (|fsm_formal_checker_s|) (_ BitVec 3)) ; \state
(define-fun |fsm_formal_checker#6| ((state |fsm_formal_checker_s|)) Bool (= (|fsm_formal_checker#5| state) #b001)) ; $eq$fsm_formal_checker_monitor.sv:32$24_Y
(define-fun |fsm_formal_checker#7| ((state |fsm_formal_checker_s|)) Bool (not (or  (|fsm_formal_checker#6| state) false))) ; $logic_not$fsm_formal_checker_monitor.sv:32$25_Y
(define-fun |fsm_formal_checker#8| ((state |fsm_formal_checker_s|)) Bool (and (or  (= ((_ extract 0 0) (|fsm_formal_checker#3| state)) #b1) false) (or  (|fsm_formal_checker#7| state) false))) ; $logic_and$fsm_formal_checker_monitor.sv:32$26_Y
(define-fun |fsm_formal_checker#9| ((state |fsm_formal_checker_s|)) (_ BitVec 1) (ite (|fsm_formal_checker#8| state) #b1 #b0)) ; $procmux$52_Y
(declare-fun |fsm_formal_checker#10| (|fsm_formal_checker_s|) (_ BitVec 1)) ; \rst_n
(define-fun |fsm_formal_checker#11| ((state |fsm_formal_checker_s|)) (_ BitVec 1) (ite (= ((_ extract 0 0) (|fsm_formal_checker#10| state)) #b1) (|fsm_formal_checker#9| state) #b0)) ; \assert_idle_addr_EN
; yosys-smt2-wire assert_idle_addr_EN 1
(define-fun |fsm_formal_checker_n assert_idle_addr_EN| ((state |fsm_formal_checker_s|)) Bool (= ((_ extract 0 0) (|fsm_formal_checker#11| state)) #b1))
(define-fun |fsm_formal_checker#12| ((state |fsm_formal_checker_s|)) Bool (= (|fsm_formal_checker#5| state) #b100)) ; $eq$fsm_formal_checker_monitor.sv:19$13_Y
(define-fun |fsm_formal_checker#13| ((state |fsm_formal_checker_s|)) Bool (not (or  (|fsm_formal_checker#12| state) false))) ; $logic_not$fsm_formal_checker_monitor.sv:19$14_Y
(define-fun |fsm_formal_checker#14| ((state |fsm_formal_checker_s|)) Bool (and (or  (= ((_ extract 0 0) (|fsm_formal_checker#4| state)) #b1) false) (or  (|fsm_formal_checker#13| state) false))) ; $logic_and$fsm_formal_checker_monitor.sv:19$15_Y
(define-fun |fsm_formal_checker#15| ((state |fsm_formal_checker_s|)) (_ BitVec 1) (ite (|fsm_formal_checker#14| state) #b1 #b0)) ; $procmux$60_Y
(define-fun |fsm_formal_checker#16| ((state |fsm_formal_checker_s|)) (_ BitVec 1) (ite (= ((_ extract 0 0) (|fsm_formal_checker#10| state)) #b1) (|fsm_formal_checker#15| state) #b0)) ; \assert_resp_done_EN
; yosys-smt2-wire assert_resp_done_EN 1
(define-fun |fsm_formal_checker_n assert_resp_done_EN| ((state |fsm_formal_checker_s|)) Bool (= ((_ extract 0 0) (|fsm_formal_checker#16| state)) #b1))
(declare-fun |fsm_formal_checker#17| (|fsm_formal_checker_s|) Bool) ; \clk
; yosys-smt2-input clk 1
; yosys-smt2-wire clk 1
; yosys-smt2-clock clk posedge
; yosys-smt2-witness {"offset": 0, "path": ["\\clk"], "smtname": "clk", "smtoffset": 0, "type": "posedge", "width": 1}
; yosys-smt2-witness {"offset": 0, "path": ["\\clk"], "smtname": "clk", "smtoffset": 0, "type": "input", "width": 1}
(define-fun |fsm_formal_checker_n clk| ((state |fsm_formal_checker_s|)) Bool (|fsm_formal_checker#17| state))
(declare-fun |fsm_formal_checker#18| (|fsm_formal_checker_s|) Bool) ; \data_valid
; yosys-smt2-input data_valid 1
; yosys-smt2-wire data_valid 1
; yosys-smt2-witness {"offset": 0, "path": ["\\data_valid"], "smtname": "data_valid", "smtoffset": 0, "type": "input", "width": 1}
(define-fun |fsm_formal_checker_n data_valid| ((state |fsm_formal_checker_s|)) Bool (|fsm_formal_checker#18| state))
(declare-fun |fsm_formal_checker#19| (|fsm_formal_checker_s|) Bool) ; \error
; yosys-smt2-input error 1
; yosys-smt2-wire error 1
; yosys-smt2-witness {"offset": 0, "path": ["\\error"], "smtname": "error", "smtoffset": 0, "type": "input", "width": 1}
(define-fun |fsm_formal_checker_n error| ((state |fsm_formal_checker_s|)) Bool (|fsm_formal_checker#19| state))
(declare-fun |fsm_formal_checker#20| (|fsm_formal_checker_s|) Bool) ; \resp_ok
; yosys-smt2-input resp_ok 1
; yosys-smt2-wire resp_ok 1
; yosys-smt2-witness {"offset": 0, "path": ["\\resp_ok"], "smtname": "resp_ok", "smtoffset": 0, "type": "input", "width": 1}
(define-fun |fsm_formal_checker_n resp_ok| ((state |fsm_formal_checker_s|)) Bool (|fsm_formal_checker#20| state))
; yosys-smt2-input rst_n 1
; yosys-smt2-wire rst_n 1
; yosys-smt2-witness {"offset": 0, "path": ["\\rst_n"], "smtname": "rst_n", "smtoffset": 0, "type": "input", "width": 1}
(define-fun |fsm_formal_checker_n rst_n| ((state |fsm_formal_checker_s|)) Bool (= ((_ extract 0 0) (|fsm_formal_checker#10| state)) #b1))
(declare-fun |fsm_formal_checker#21| (|fsm_formal_checker_s|) Bool) ; \start
; yosys-smt2-input start 1
; yosys-smt2-wire start 1
; yosys-smt2-witness {"offset": 0, "path": ["\\start"], "smtname": "start", "smtoffset": 0, "type": "input", "width": 1}
(define-fun |fsm_formal_checker_n start| ((state |fsm_formal_checker_s|)) Bool (|fsm_formal_checker#21| state))
; yosys-smt2-input state 3
; yosys-smt2-wire state 3
; yosys-smt2-witness {"offset": 0, "path": ["\\state"], "smtname": "state", "smtoffset": 0, "type": "input", "width": 3}
(define-fun |fsm_formal_checker_n state| ((state |fsm_formal_checker_s|)) (_ BitVec 3) (|fsm_formal_checker#5| state))
(define-fun |fsm_formal_checker#22| ((state |fsm_formal_checker_s|)) (_ BitVec 1) (bvnot (ite (|fsm_formal_checker#17| state) #b1 #b0))) ; $auto$rtlil.cc:3255:Not$112
; yosys-smt2-assume 0 $auto$formalff.cc:987:execute$113
(define-fun |fsm_formal_checker_u 0| ((state |fsm_formal_checker_s|)) Bool (or (= ((_ extract 0 0) (|fsm_formal_checker#22| state)) #b1) (not true))) ; $auto$formalff.cc:987:execute$113
; yosys-smt2-assert 0 assert_idle_addr
(define-fun |fsm_formal_checker_a 0| ((state |fsm_formal_checker_s|)) Bool (or (= ((_ extract 0 0) (|fsm_formal_checker#0| state)) #b1) (not (= ((_ extract 0 0) (|fsm_formal_checker#2| state)) #b1)))) ; assert_idle_addr
; yosys-smt2-assert 1 assert_resp_done
(define-fun |fsm_formal_checker_a 1| ((state |fsm_formal_checker_s|)) Bool (or (= ((_ extract 0 0) (|fsm_formal_checker#0| state)) #b1) (not (= ((_ extract 0 0) (|fsm_formal_checker#1| state)) #b1)))) ; assert_resp_done
(define-fun |fsm_formal_checker#23| ((state |fsm_formal_checker_s|)) Bool (= (|fsm_formal_checker#5| state) #b011)) ; $eq$fsm_formal_checker_monitor.sv:21$18_Y
(define-fun |fsm_formal_checker#24| ((state |fsm_formal_checker_s|)) Bool (and (or  (|fsm_formal_checker#23| state) false) (or  (|fsm_formal_checker#20| state) false))) ; $logic_and$fsm_formal_checker_monitor.sv:21$19_Y
(define-fun |fsm_formal_checker#25| ((state |fsm_formal_checker_s|)) Bool (not (or  (|fsm_formal_checker#19| state) false))) ; $logic_not$fsm_formal_checker_monitor.sv:21$20_Y
(define-fun |fsm_formal_checker#26| ((state |fsm_formal_checker_s|)) Bool (and (or  (|fsm_formal_checker#24| state) false) (or  (|fsm_formal_checker#25| state) false))) ; $logic_and$fsm_formal_checker_monitor.sv:21$21_Y
(define-fun |fsm_formal_checker#27| ((state |fsm_formal_checker_s|)) (_ BitVec 1) (ite (= ((_ extract 0 0) (|fsm_formal_checker#10| state)) #b1) (ite (|fsm_formal_checker#26| state) #b1 #b0) #b0)) ; $0\_va_assert_resp_done_triggered_1[0:0]
(define-fun |fsm_formal_checker#28| ((state |fsm_formal_checker_s|)) Bool (not (or  (= ((_ extract 0 0) (|fsm_formal_checker#5| state)) #b1) (= ((_ extract 1 1) (|fsm_formal_checker#5| state)) #b1) (= ((_ extract 2 2) (|fsm_formal_checker#5| state)) #b1)))) ; $eq$fsm_formal_checker_monitor.sv:34$29_Y
(define-fun |fsm_formal_checker#29| ((state |fsm_formal_checker_s|)) Bool (and (or  (|fsm_formal_checker#28| state) false) (or  (|fsm_formal_checker#21| state) false))) ; $logic_and$fsm_formal_checker_monitor.sv:34$30_Y
(define-fun |fsm_formal_checker#30| ((state |fsm_formal_checker_s|)) (_ BitVec 1) (ite (= ((_ extract 0 0) (|fsm_formal_checker#10| state)) #b1) (ite (|fsm_formal_checker#29| state) #b1 #b0) #b0)) ; $0\_va_assert_idle_addr_triggered_2[0:0]
(define-fun |fsm_formal_checker_a| ((state |fsm_formal_checker_s|)) Bool (and
  (|fsm_formal_checker_a 0| state)
  (|fsm_formal_checker_a 1| state)
))
(define-fun |fsm_formal_checker_u| ((state |fsm_formal_checker_s|)) Bool 
  (|fsm_formal_checker_u 0| state)
)
(define-fun |fsm_formal_checker_i| ((state |fsm_formal_checker_s|)) Bool (and
  (= (= ((_ extract 0 0) (|fsm_formal_checker#0| state)) #b1) true) ; $auto$async2sync.cc:116:execute$77
  (= (= ((_ extract 0 0) (|fsm_formal_checker#1| state)) #b1) false) ; $auto$async2sync.cc:107:execute$79
  (= (= ((_ extract 0 0) (|fsm_formal_checker#2| state)) #b1) false) ; $auto$async2sync.cc:107:execute$73
))
(define-fun |fsm_formal_checker_h| ((state |fsm_formal_checker_s|)) Bool true)
(define-fun |fsm_formal_checker_t| ((state |fsm_formal_checker_s|) (next_state |fsm_formal_checker_s|)) Bool (and
  (= (|fsm_formal_checker#27| state) (|fsm_formal_checker#4| next_state)) ; $procdff$71 \_va_assert_resp_done_triggered_1
  (= (|fsm_formal_checker#30| state) (|fsm_formal_checker#3| next_state)) ; $procdff$70 \_va_assert_idle_addr_triggered_2
  (= (|fsm_formal_checker#11| state) (|fsm_formal_checker#2| next_state)) ; $auto$async2sync.cc:110:execute$75 $auto$async2sync.cc:107:execute$73
  (= (|fsm_formal_checker#16| state) (|fsm_formal_checker#1| next_state)) ; $auto$async2sync.cc:110:execute$81 $auto$async2sync.cc:107:execute$79
  (= #b0 (|fsm_formal_checker#0| next_state)) ; $auto$async2sync.cc:118:execute$78 $auto$async2sync.cc:116:execute$77
)) ; end of module fsm_formal_checker
; yosys-smt2-module protocol_fsm
(declare-sort |protocol_fsm_s| 0)
(declare-fun |protocol_fsm_is| (|protocol_fsm_s|) Bool)
(declare-fun |protocol_fsm#0| (|protocol_fsm_s|) Bool) ; \clk
; yosys-smt2-input clk 1
; yosys-smt2-wire clk 1
; yosys-smt2-clock clk posedge
; yosys-smt2-witness {"offset": 0, "path": ["\\clk"], "smtname": "clk", "smtoffset": 0, "type": "posedge", "width": 1}
; yosys-smt2-witness {"offset": 0, "path": ["\\clk"], "smtname": "clk", "smtoffset": 0, "type": "input", "width": 1}
(define-fun |protocol_fsm_n clk| ((state |protocol_fsm_s|)) Bool (|protocol_fsm#0| state))
(declare-fun |protocol_fsm#1| (|protocol_fsm_s|) Bool) ; \data_valid
; yosys-smt2-input data_valid 1
; yosys-smt2-wire data_valid 1
; yosys-smt2-witness {"offset": 0, "path": ["\\data_valid"], "smtname": "data_valid", "smtoffset": 0, "type": "input", "width": 1}
(define-fun |protocol_fsm_n data_valid| ((state |protocol_fsm_s|)) Bool (|protocol_fsm#1| state))
(declare-fun |protocol_fsm#2| (|protocol_fsm_s|) Bool) ; \resp_ok
; yosys-smt2-input resp_ok 1
; yosys-smt2-wire resp_ok 1
; yosys-smt2-witness {"offset": 0, "path": ["\\resp_ok"], "smtname": "resp_ok", "smtoffset": 0, "type": "input", "width": 1}
(define-fun |protocol_fsm_n resp_ok| ((state |protocol_fsm_s|)) Bool (|protocol_fsm#2| state))
(declare-fun |protocol_fsm#3| (|protocol_fsm_s|) Bool) ; \rst_n
; yosys-smt2-input rst_n 1
; yosys-smt2-wire rst_n 1
; yosys-smt2-witness {"offset": 0, "path": ["\\rst_n"], "smtname": "rst_n", "smtoffset": 0, "type": "input", "width": 1}
(define-fun |protocol_fsm_n rst_n| ((state |protocol_fsm_s|)) Bool (|protocol_fsm#3| state))
(declare-fun |protocol_fsm#4| (|protocol_fsm_s|) Bool) ; \start
; yosys-smt2-input start 1
; yosys-smt2-wire start 1
; yosys-smt2-witness {"offset": 0, "path": ["\\start"], "smtname": "start", "smtoffset": 0, "type": "input", "width": 1}
(define-fun |protocol_fsm_n start| ((state |protocol_fsm_s|)) Bool (|protocol_fsm#4| state))
; yosys-smt2-anyinit protocol_fsm#5 3 fsm_transition_pass.sv:11.5-24.8
; yosys-smt2-witness {"offset": 0, "path": ["\\state"], "smtname": 5, "smtoffset": 0, "type": "init", "width": 3}
(declare-fun |protocol_fsm#5| (|protocol_fsm_s|) (_ BitVec 3)) ; \state
; yosys-smt2-output state 3
; yosys-smt2-register state 3
; yosys-smt2-wire state 3
(define-fun |protocol_fsm_n state| ((state |protocol_fsm_s|)) (_ BitVec 3) (|protocol_fsm#5| state))
(define-fun |protocol_fsm#6| ((state |protocol_fsm_s|)) (_ BitVec 1) (bvnot (ite (|protocol_fsm#0| state) #b1 #b0))) ; $auto$rtlil.cc:3255:Not$115
; yosys-smt2-assume 0 $auto$formalff.cc:987:execute$116
(define-fun |protocol_fsm_u 0| ((state |protocol_fsm_s|)) Bool (or (= ((_ extract 0 0) (|protocol_fsm#6| state)) #b1) (not true))) ; $auto$formalff.cc:987:execute$116
(define-fun |protocol_fsm#7| ((state |protocol_fsm_s|)) (_ BitVec 3) (ite (|protocol_fsm#2| state) #b100 (|protocol_fsm#5| state))) ; $procmux$35_Y
(define-fun |protocol_fsm#8| ((state |protocol_fsm_s|)) (_ BitVec 3) (ite (|protocol_fsm#1| state) #b011 (|protocol_fsm#5| state))) ; $procmux$39_Y
(define-fun |protocol_fsm#9| ((state |protocol_fsm_s|)) (_ BitVec 3) (ite (|protocol_fsm#4| state) #b001 (|protocol_fsm#5| state))) ; $procmux$43_Y
(define-fun |protocol_fsm#10| ((state |protocol_fsm_s|)) Bool (= (|protocol_fsm#5| state) #b011)) ; $procmux$38_CMP
(define-fun |protocol_fsm#11| ((state |protocol_fsm_s|)) Bool (= (|protocol_fsm#5| state) #b010)) ; $procmux$41_CMP
(define-fun |protocol_fsm#12| ((state |protocol_fsm_s|)) Bool (= (|protocol_fsm#5| state) #b001)) ; $procmux$42_CMP
(define-fun |protocol_fsm#13| ((state |protocol_fsm_s|)) Bool (not (or  (= ((_ extract 0 0) (|protocol_fsm#5| state)) #b1) (= ((_ extract 1 1) (|protocol_fsm#5| state)) #b1) (= ((_ extract 2 2) (|protocol_fsm#5| state)) #b1)))) ; $procmux$45_CMP
(define-fun |protocol_fsm#14| ((state |protocol_fsm_s|)) (_ BitVec 3) (ite (|protocol_fsm#13| state) (|protocol_fsm#9| state) (ite (|protocol_fsm#12| state) #b010 (ite (|protocol_fsm#11| state) (|protocol_fsm#8| state) (ite (|protocol_fsm#10| state) (|protocol_fsm#7| state) #b000))))) ; $procmux$37_Y
(define-fun |protocol_fsm#15| ((state |protocol_fsm_s|)) (_ BitVec 3) (ite (|protocol_fsm#3| state) (|protocol_fsm#14| state) #b000)) ; $0\state[2:0]
(define-fun |protocol_fsm_a| ((state |protocol_fsm_s|)) Bool true)
(define-fun |protocol_fsm_u| ((state |protocol_fsm_s|)) Bool 
  (|protocol_fsm_u 0| state)
)
(define-fun |protocol_fsm_i| ((state |protocol_fsm_s|)) Bool true)
(define-fun |protocol_fsm_h| ((state |protocol_fsm_s|)) Bool true)
(define-fun |protocol_fsm_t| ((state |protocol_fsm_s|) (next_state |protocol_fsm_s|)) Bool 
  (= (|protocol_fsm#15| state) (|protocol_fsm#5| next_state)) ; $procdff$69 \state
) ; end of module protocol_fsm
; yosys-smt2-module formal_wrapper
(declare-sort |formal_wrapper_s| 0)
(declare-fun |formal_wrapper_is| (|formal_wrapper_s|) Bool)
; yosys-smt2-witness {"offset": 0, "path": ["\\_va_past_valid"], "smtname": 0, "smtoffset": 0, "type": "reg", "width": 1}
(declare-fun |formal_wrapper#0| (|formal_wrapper_s|) (_ BitVec 1)) ; \_va_past_valid
; yosys-smt2-register _va_past_valid 1
; yosys-smt2-wire _va_past_valid 1
(define-fun |formal_wrapper_n _va_past_valid| ((state |formal_wrapper_s|)) Bool (= ((_ extract 0 0) (|formal_wrapper#0| state)) #b1))
(declare-fun |formal_wrapper#1| (|formal_wrapper_s|) Bool) ; \clk
; yosys-smt2-input clk 1
; yosys-smt2-wire clk 1
; yosys-smt2-clock clk posedge
; yosys-smt2-witness {"offset": 0, "path": ["\\clk"], "smtname": "clk", "smtoffset": 0, "type": "posedge", "width": 1}
; yosys-smt2-witness {"offset": 0, "path": ["\\clk"], "smtname": "clk", "smtoffset": 0, "type": "input", "width": 1}
(define-fun |formal_wrapper_n clk| ((state |formal_wrapper_s|)) Bool (|formal_wrapper#1| state))
; yosys-smt2-anyseq formal_wrapper#2 1 formal_wrapper.sv:8.23-8.33 data_valid
; yosys-smt2-witness {"offset": 0, "path": ["\\data_valid"], "smtname": 2, "smtoffset": 0, "type": "seq", "width": 1}
(declare-fun |formal_wrapper#2| (|formal_wrapper_s|) (_ BitVec 1)) ; \data_valid
; yosys-smt2-wire data_valid 1
(define-fun |formal_wrapper_n data_valid| ((state |formal_wrapper_s|)) Bool (= ((_ extract 0 0) (|formal_wrapper#2| state)) #b1))
; yosys-smt2-anyseq formal_wrapper#3 1 $auto$setundef.cc:350:execute$106
; yosys-smt2-witness {"offset": 0, "path": ["\\error"], "smtname": 3, "smtoffset": 0, "type": "seq", "width": 1}
(declare-fun |formal_wrapper#3| (|formal_wrapper_s|) (_ BitVec 1)) ; \error
; yosys-smt2-wire error 1
(define-fun |formal_wrapper_n error| ((state |formal_wrapper_s|)) Bool (= ((_ extract 0 0) (|formal_wrapper#3| state)) #b1))
; yosys-smt2-anyseq formal_wrapper#4 1 formal_wrapper.sv:9.23-9.30 resp_ok
; yosys-smt2-witness {"offset": 0, "path": ["\\resp_ok"], "smtname": 4, "smtoffset": 0, "type": "seq", "width": 1}
(declare-fun |formal_wrapper#4| (|formal_wrapper_s|) (_ BitVec 1)) ; \resp_ok
; yosys-smt2-wire resp_ok 1
(define-fun |formal_wrapper_n resp_ok| ((state |formal_wrapper_s|)) Bool (= ((_ extract 0 0) (|formal_wrapper#4| state)) #b1))
(declare-fun |formal_wrapper#5| (|formal_wrapper_s|) Bool) ; \rst_n
; yosys-smt2-input rst_n 1
; yosys-smt2-wire rst_n 1
; yosys-smt2-witness {"offset": 0, "path": ["\\rst_n"], "smtname": "rst_n", "smtoffset": 0, "type": "input", "width": 1}
(define-fun |formal_wrapper_n rst_n| ((state |formal_wrapper_s|)) Bool (|formal_wrapper#5| state))
; yosys-smt2-anyseq formal_wrapper#6 1 formal_wrapper.sv:7.23-7.28 start
; yosys-smt2-witness {"offset": 0, "path": ["\\start"], "smtname": 6, "smtoffset": 0, "type": "seq", "width": 1}
(declare-fun |formal_wrapper#6| (|formal_wrapper_s|) (_ BitVec 1)) ; \start
; yosys-smt2-wire start 1
(define-fun |formal_wrapper_n start| ((state |formal_wrapper_s|)) Bool (= ((_ extract 0 0) (|formal_wrapper#6| state)) #b1))
; yosys-smt2-cell protocol_fsm u_dut
; yosys-smt2-witness {"path": ["\\u_dut"], "smtname": "u_dut", "type": "cell"}
(declare-fun |formal_wrapper#7| (|formal_wrapper_s|) (_ BitVec 3)) ; \state
(declare-fun |formal_wrapper_h u_dut| (|formal_wrapper_s|) |protocol_fsm_s|)
; yosys-smt2-wire state 3
(define-fun |formal_wrapper_n state| ((state |formal_wrapper_s|)) (_ BitVec 3) (|formal_wrapper#7| state))
(define-fun |formal_wrapper#8| ((state |formal_wrapper_s|)) (_ BitVec 1) (bvnot (ite (|formal_wrapper#1| state) #b1 #b0))) ; $auto$rtlil.cc:3255:Not$109
; yosys-smt2-assume 0 $auto$formalff.cc:987:execute$110
(define-fun |formal_wrapper_u 0| ((state |formal_wrapper_s|)) Bool (or (= ((_ extract 0 0) (|formal_wrapper#8| state)) #b1) (not true))) ; $auto$formalff.cc:987:execute$110
(define-fun |formal_wrapper#9| ((state |formal_wrapper_s|)) Bool (not (or  (|formal_wrapper#5| state) false))) ; $logic_not$formal_wrapper.sv:40$9_Y
(define-fun |formal_wrapper#10| ((state |formal_wrapper_s|)) (_ BitVec 1) (ite (= ((_ extract 0 0) (|formal_wrapper#0| state)) #b1) #b0 #b1)) ; $assume$formal_wrapper.sv:40$8_EN
; yosys-smt2-assume 1 _witness_.check_assume_formal_wrapper_sv_40_8 formal_wrapper.sv:40.13-40.27
(define-fun |formal_wrapper_u 1| ((state |formal_wrapper_s|)) Bool (or (|formal_wrapper#9| state) (not (= ((_ extract 0 0) (|formal_wrapper#10| state)) #b1)))) ; _witness_.check_assume_formal_wrapper_sv_40_8
; yosys-smt2-cell fsm_formal_checker u_monitor
; yosys-smt2-witness {"path": ["\\u_monitor"], "smtname": "u_monitor", "type": "cell"}
(declare-fun |formal_wrapper_h u_monitor| (|formal_wrapper_s|) |fsm_formal_checker_s|)
(define-fun |formal_wrapper_a| ((state |formal_wrapper_s|)) Bool (and
  (|fsm_formal_checker_a| (|formal_wrapper_h u_monitor| state))
  (|protocol_fsm_a| (|formal_wrapper_h u_dut| state))
))
(define-fun |formal_wrapper_u| ((state |formal_wrapper_s|)) Bool (and
  (|formal_wrapper_u 0| state)
  (|formal_wrapper_u 1| state)
  (|fsm_formal_checker_u| (|formal_wrapper_h u_monitor| state))
  (|protocol_fsm_u| (|formal_wrapper_h u_dut| state))
))
(define-fun |formal_wrapper_i| ((state |formal_wrapper_s|)) Bool (and
  (= (= ((_ extract 0 0) (|formal_wrapper#0| state)) #b1) false) ; _va_past_valid
  (|fsm_formal_checker_i| (|formal_wrapper_h u_monitor| state))
  (|protocol_fsm_i| (|formal_wrapper_h u_dut| state))
))
(define-fun |formal_wrapper_h| ((state |formal_wrapper_s|)) Bool (and
  (= (|formal_wrapper_is| state) (|fsm_formal_checker_is| (|formal_wrapper_h u_monitor| state)))
  (= (|formal_wrapper#1| state) (|fsm_formal_checker_n clk| (|formal_wrapper_h u_monitor| state))) ; fsm_formal_checker.clk
  (= (= ((_ extract 0 0) (|formal_wrapper#2| state)) #b1) (|fsm_formal_checker_n data_valid| (|formal_wrapper_h u_monitor| state))) ; fsm_formal_checker.data_valid
  (= (= ((_ extract 0 0) (|formal_wrapper#3| state)) #b1) (|fsm_formal_checker_n error| (|formal_wrapper_h u_monitor| state))) ; fsm_formal_checker.error
  (= (= ((_ extract 0 0) (|formal_wrapper#4| state)) #b1) (|fsm_formal_checker_n resp_ok| (|formal_wrapper_h u_monitor| state))) ; fsm_formal_checker.resp_ok
  (= (|formal_wrapper#5| state) (|fsm_formal_checker_n rst_n| (|formal_wrapper_h u_monitor| state))) ; fsm_formal_checker.rst_n
  (= (= ((_ extract 0 0) (|formal_wrapper#6| state)) #b1) (|fsm_formal_checker_n start| (|formal_wrapper_h u_monitor| state))) ; fsm_formal_checker.start
  (= (|formal_wrapper#7| state) (|fsm_formal_checker_n state| (|formal_wrapper_h u_monitor| state))) ; fsm_formal_checker.state
  (= (|formal_wrapper_is| state) (|protocol_fsm_is| (|formal_wrapper_h u_dut| state)))
  (= (|formal_wrapper#1| state) (|protocol_fsm_n clk| (|formal_wrapper_h u_dut| state))) ; protocol_fsm.clk
  (= (= ((_ extract 0 0) (|formal_wrapper#2| state)) #b1) (|protocol_fsm_n data_valid| (|formal_wrapper_h u_dut| state))) ; protocol_fsm.data_valid
  (= (= ((_ extract 0 0) (|formal_wrapper#4| state)) #b1) (|protocol_fsm_n resp_ok| (|formal_wrapper_h u_dut| state))) ; protocol_fsm.resp_ok
  (= (|formal_wrapper#5| state) (|protocol_fsm_n rst_n| (|formal_wrapper_h u_dut| state))) ; protocol_fsm.rst_n
  (= (= ((_ extract 0 0) (|formal_wrapper#6| state)) #b1) (|protocol_fsm_n start| (|formal_wrapper_h u_dut| state))) ; protocol_fsm.start
  (= (|formal_wrapper#7| state) (|protocol_fsm_n state| (|formal_wrapper_h u_dut| state))) ; protocol_fsm.state
  (|fsm_formal_checker_h| (|formal_wrapper_h u_monitor| state))
  (|protocol_fsm_h| (|formal_wrapper_h u_dut| state))
))
(define-fun |formal_wrapper_t| ((state |formal_wrapper_s|) (next_state |formal_wrapper_s|)) Bool (and
  (= #b1 (|formal_wrapper#0| next_state)) ; $procdff$72 \_va_past_valid
  (|fsm_formal_checker_t| (|formal_wrapper_h u_monitor| state) (|formal_wrapper_h u_monitor| next_state))
  (|protocol_fsm_t| (|formal_wrapper_h u_dut| state) (|formal_wrapper_h u_dut| next_state))
)) ; end of module formal_wrapper
; yosys-smt2-topmod formal_wrapper
; end of yosys output
